Cars = 1..200;
Options = 1..5;
Classes = 1..22;
sequenceMinCapacity = [0, 0, 0, 0, 0];
sequenceMaxCapacity = [1, 2, 1, 2, 1];
sequenceSize = [2, 3, 3, 5, 5];
numOrdered = [2, 3, 5, 3, 24, 2, 2, 2, 1, 32, 44, 2, 4, 6, 1, 1, 1, 53, 1, 1, 8, 2];
classHasOption = [| true, false,  true,  true, false
                  | true, false, false, false,  true
                  | true,  true, false, false, false
                  | true,  true,  true, false, false
                  |false, false, false, false,  true
                  | true,  true, false, false,  true
                  | true,  true, false,  true, false
                  |false,  true, false,  true, false
                  | true, false,  true, false,  true
                  |false, false,  true, false, false
                  |false, false, false,  true, false
                  |false,  true,  true, false,  true
                  |false, false,  true,  true, false
                  | true, false,  true, false, false
                  | true, false, false,  true,  true
                  |false, false,  true,  true,  true
                  |false, false, false,  true,  true
                  |false,  true, false, false, false
                  |false,  true,  true, false, false
                  |false,  true, false, false,  true
                  | true, false, false, false, false
                  | true, false, false,  true, false|];
optionOrdering = [5, 3, 4, 2, 1];
